10J3M/DAT/10J3MUNR-20.dat
10 3
39.7815 9.6561
20.5006 21.4088
27.4715 24.2332
25.9472 10.1561
19.8026 49.7309
14.9626 17.8551
42.3246 29.0291
16.2531 15.1305
48.2596 31.219
40.5611 28.0844
236.5032