10J3M/SOL/10J3MUNR-20.sol
solution status: optimal solution found
objective value:                              81.1265
x#1#1                                               1 	(obj:0)
x#2#1                                               1 	(obj:0)
x#3#3                                               1 	(obj:0)
x#4#1                                               1 	(obj:0)
x#5#2                                               1 	(obj:0)
x#6#3                                               1 	(obj:0)
x#7#3                                               1 	(obj:0)
x#8#2                               0.860216853380337 	(obj:0)
x#8#3                               0.139783146619663 	(obj:0)
x#9#1                                               1 	(obj:0)
x#10#1                              0.721961012203497 	(obj:0)
x#10#3                              0.278038987796504 	(obj:0)
z                                             81.1265 	(obj:1)
